50589
75,118,241,287,599,618,649,704,728,754,770,830,947,1050,1059,1107,1143,1334,1391,1400,1457,1478,1518,1667,1879,2025,2195,2339,2504,2524,2613,2666,2744,2896,2933,3032,3059,3120,3171,3216,3446,3506,3562,3624,3627,3663,3665,3752,3875,3992,4131,4198,4211,4276,4551,4809,4874,5015,5037,5041,5079,5092,5112,5407,5476,5495,5512,5555,5608,5741,5887,5899,5930,6044,6096,6267,6270,6312,6354,6376,6447,6461,6474,6552,6624,6801,6867,6952,6967,7068,7088,7097,7117,7178,7197,7310,7420,7482,7689,7726,7784,7963,8149,8207,8355,8457,8543,8557,8572,8663,8722,8777,8824,8861,8862,9094,9154,9314,9367,9428,9591,9718,9801,9941,9945,9946
